(set-logic QF_SLIA)
(declare-fun var0 () String)
(assert (str.in_re var0 (re.++ ((_ re.loop 11 786) (re.++ (re.union (str.to_re "H\u0022") (re.union (str.to_re "G") (re.union (str.to_re "\u0022H") (str.to_re "H*V")))) (re.++ (re.union (str.to_re "6") (re.union (str.to_re "Dv") (re.union (str.to_re "T?y") (str.to_re "WMY")))) (re.++ (re.union (str.to_re "\u0022~'") (re.union (str.to_re "{j}") (re.union (str.to_re "q") (str.to_re "%^X")))) (re.union (str.to_re "81") (re.union (str.to_re "9") (re.union (str.to_re ";") (str.to_re "G")))))))) (re.++ ((_ re.loop 4 549) (re.++ (re.union (str.to_re ":Zw") (re.union (str.to_re "W.v") (re.union (str.to_re "#") (str.to_re "*_")))) (re.++ (re.union (str.to_re "6f") (re.union (str.to_re "Y,") (re.union (str.to_re "s") (str.to_re "w")))) (re.++ (re.union (str.to_re "E") (re.union (str.to_re ")B") (re.union (str.to_re "1mW") (str.to_re "'2d")))) (re.union (str.to_re "2=]") (re.union (str.to_re "/&") (re.union (str.to_re "zeR") (str.to_re "Nr'")))))))) (re.++ ((_ re.loop 7 447) (re.++ (re.union (str.to_re "%") (re.union (str.to_re "l!") (re.union (str.to_re "0") (str.to_re "]T")))) (re.++ (re.union (str.to_re "/Z*") (re.union (str.to_re "l:u") (re.union (str.to_re "y2") (str.to_re "a5s")))) (re.++ (re.union (str.to_re "E") (re.union (str.to_re "`F") (re.union (str.to_re "^0") (str.to_re "9")))) (re.union (str.to_re "?p/") (re.union (str.to_re "HcC") (re.union (str.to_re "N") (str.to_re "~R/")))))))) ((_ re.loop 2 779) (re.++ (re.union (str.to_re "Dia") (re.union (str.to_re "u_") (re.union (str.to_re "v|+") (str.to_re "g")))) (re.++ (re.union (str.to_re "O-R") (re.union (str.to_re "?") (re.union (str.to_re "uA@") (str.to_re "r")))) (re.++ (re.union (str.to_re "l") (re.union (str.to_re "256") (re.union (str.to_re "Kk") (str.to_re "~[")))) (re.union (str.to_re "|") (re.union (str.to_re "l6y") (re.union (str.to_re "u") (str.to_re "_R")))))))))))))
(assert (not (str.in_re var0 (re.++ ((_ re.loop 0 56) (re.++ (re.union (str.to_re ",") (re.union (str.to_re "RW1") (re.union (str.to_re "jo") (str.to_re "kIs")))) (re.++ (re.union (str.to_re ";6") (re.union (str.to_re "Tt") (re.union (str.to_re "9h") (str.to_re "w$")))) (re.++ (re.union (str.to_re "\u0022yw") (re.union (str.to_re "`|") (re.union (str.to_re "=") (str.to_re "|P")))) (re.union (str.to_re ";") (re.union (str.to_re "&") (re.union (str.to_re "fAE") (str.to_re "%e")))))))) (re.++ ((_ re.loop 6 82) (re.++ (re.union (str.to_re "f&K") (re.union (str.to_re "]") (re.union (str.to_re "l") (str.to_re "&p")))) (re.++ (re.union (str.to_re "'g?") (re.union (str.to_re "Qx") (re.union (str.to_re "wL~") (str.to_re "JR")))) (re.++ (re.union (str.to_re "nD0") (re.union (str.to_re "N1") (re.union (str.to_re "Hxy") (str.to_re "e)")))) (re.union (str.to_re "p") (re.union (str.to_re "3f") (re.union (str.to_re "T$") (str.to_re "9E")))))))) (re.++ ((_ re.loop 5 975) (re.++ (re.union (str.to_re "!u2") (re.union (str.to_re "7") (re.union (str.to_re "vT") (str.to_re "|\\\\")))) (re.++ (re.union (str.to_re "=") (re.union (str.to_re "\u0022") (re.union (str.to_re "ru`") (str.to_re ";f")))) (re.++ (re.union (str.to_re "l") (re.union (str.to_re "0") (re.union (str.to_re "]") (str.to_re "V")))) (re.union (str.to_re "=") (re.union (str.to_re "61") (re.union (str.to_re "B4p") (str.to_re "ZV")))))))) ((_ re.loop 12 718) (re.++ (re.union (str.to_re "7t") (re.union (str.to_re "GJ") (re.union (str.to_re "9c5") (str.to_re "/P:")))) (re.++ (re.union (str.to_re "Ciw") (re.union (str.to_re "X`") (re.union (str.to_re "cJ") (str.to_re "I#")))) (re.++ (re.union (str.to_re "u)~") (re.union (str.to_re "C") (re.union (str.to_re ".=v") (str.to_re "Q")))) (re.union (str.to_re "M") (re.union (str.to_re "oc") (re.union (str.to_re "b?") (str.to_re "Yy["))))))))))))))
(assert (not (str.in_re var0 (re.++ (re.* re.allchar) (re.++ (re.union (str.to_re "<") (re.union (str.to_re ">") (re.union (str.to_re "'") (re.union (str.to_re "\u0022") (str.to_re "&"))))) (re.* re.allchar))))))
(assert (<= 50 (str.len var0)))
(check-sat)
(get-model)
